20
1 0 5
2 0 2
2 1 5
3 0 1
3 1 1
3 2 6
4 0 5
4 1 5
4 2 1
4 3 2
5 0 4
5 1 4
5 2 3
5 3 5
5 4 2
6 0 4
6 1 6
6 2 2
6 3 5
6 4 6
6 5 6
7 0 6
7 1 2
7 2 1
7 3 3
7 4 2
7 5 1
7 6 6
8 0 6
8 1 1
8 2 6
8 3 1
8 4 3
8 5 4
8 6 4
8 7 2
9 0 2
9 1 5
9 2 3
9 3 2
9 4 4
9 5 6
9 6 3
9 7 4
9 8 1
10 0 3
10 1 6
10 2 1
10 3 6
10 4 5
10 5 1
10 6 3
10 7 1
10 8 6
10 9 4
11 0 2
11 1 4
11 2 5
11 3 1
11 4 2
11 5 6
11 6 5
11 7 2
11 8 6
11 9 4
11 10 1
12 0 6
12 1 1
12 2 4
12 3 2
12 4 3
12 5 3
12 6 5
12 7 4
12 8 2
12 9 6
12 10 6
12 11 5
13 0 3
13 1 5
13 2 4
13 3 6
13 4 2
13 5 4
13 6 5
13 7 2
13 8 6
13 9 5
13 10 3
13 11 6
13 12 6
14 0 3
14 1 3
14 2 1
14 3 4
14 4 3
14 5 3
14 6 3
14 7 5
14 8 1
14 9 4
14 10 5
14 11 3
14 12 2
14 13 6
15 0 1
15 1 5
15 2 5
15 3 5
15 4 2
15 5 1
15 6 5
15 7 6
15 8 5
15 9 1
15 10 6
15 11 5
15 12 6
15 13 1
15 14 1
16 0 4
16 1 4
16 2 5
16 3 6
16 4 4
16 5 6
16 6 4
16 7 5
16 8 5
16 9 5
16 10 1
16 11 2
16 12 3
16 13 4
16 14 6
16 15 5
17 0 3
17 1 4
17 2 3
17 3 4
17 4 6
17 5 2
17 6 5
17 7 5
17 8 5
17 9 1
17 10 6
17 11 4
17 12 1
17 13 1
17 14 4
17 15 2
17 16 2
18 0 3
18 1 2
18 2 6
18 3 6
18 4 6
18 5 5
18 6 2
18 7 6
18 8 1
18 9 6
18 10 6
18 11 1
18 12 3
18 13 2
18 14 3
18 15 3
18 16 6
18 17 1
19 0 1
19 1 2
19 2 5
19 3 6
19 4 1
19 5 3
19 6 3
19 7 2
19 8 2
19 9 6
19 10 3
19 11 5
19 12 4
19 13 1
19 14 4
19 15 1
19 16 5
19 17 3
19 18 5
